100
32
21
18
5
26
9
27
7
6
10
22
24
1
8
12
12
1
6
1
1
1
17
2
1
3
1
4
1
3
10
1
16
2
4
1
1
2
3
17
5
18
2
5
18
1
2
2
2
3
4
4
2
1
2
19
1
4
4
3
2
1
1
1
4
1
1
18
2
2
1
1
18
19
2
1
3
4
1
2
5
2
1
1
3
2
19
1
3
1
3
3
2
2
2
5
1
16
3
1
2
1